unknown
(:binary-propagations  944
 :decisions            1981
 :del-clause           472
 :final-checks         9
 :max-generation       1
 :max-memory           27.48
 :memory               21.93
 :mk-bool-var          2360
 :mk-clause            694
 :mk-clause-binary     1388
 :num-allocs           176691767
 :num-checks           1
 :propagations         1583
 :quant-instantiations 472
 :restarts             8
 :rlimit-count         2718651
 :time                 0.31)
